verifications/stream/logs/fix_mod2.opb
min: +194 x6 -192 x7 -201 x8 -49 x9 -51 x10 +48 x11 -305 x12 -310 x13 +302 x14 +106 x15 ;
-1 x3 >= 0;
+1 x4 >= 1;
+1 x1 >= 1;
-1 x2 -1 x1 +1 x6 >= -1;
+1 x2 +1 x1 +1 x6 >= 1;
-1 x3 +1 x1 -1 x7 >= -1;
+1 x3 -1 x1 -1 x7 >= -1;
-1 x3 +1 x2 -1 x8 >= -1;
+1 x3 -1 x2 -1 x8 >= -1;
-1 x4 +1 x1 -1 x9 >= -1;
+1 x4 -1 x1 -1 x9 >= -1;
-1 x4 +1 x2 -1 x10 >= -1;
+1 x4 -1 x2 -1 x10 >= -1;
-1 x4 -1 x3 +1 x11 >= -1;
+1 x4 +1 x3 +1 x11 >= 1;
-1 x5 +1 x1 -1 x12 >= -1;
+1 x5 -1 x1 -1 x12 >= -1;
-1 x5 +1 x2 -1 x13 >= -1;
+1 x5 -1 x2 -1 x13 >= -1;
-1 x5 -1 x3 +1 x14 >= -1;
+1 x5 +1 x3 +1 x14 >= 1;
-1 x5 -1 x4 +1 x15 >= -1;
+1 x5 +1 x4 +1 x15 >= 1;
