verifications/stream/logs/fix_mod2.txt
h -3 0
h 4 0
h 1 0
h -2 -1 6 0
h 2 1 6 0
194 -6 0
h -3 1 -7 0
h 3 -1 -7 0
192 7 0
h -3 2 -8 0
h 3 -2 -8 0
201 8 0
h -4 1 -9 0
h 4 -1 -9 0
49 9 0
h -4 2 -10 0
h 4 -2 -10 0
51 10 0
h -4 -3 11 0
h 4 3 11 0
48 -11 0
h -5 1 -12 0
h 5 -1 -12 0
305 12 0
h -5 2 -13 0
h 5 -2 -13 0
310 13 0
h -5 -3 14 0
h 5 3 14 0
302 -14 0
h -5 -4 15 0
h 5 4 15 0
106 -15 0
