verifications/stream/logs/fix_mod2.sol
# Objective value = -449
x6 0
x7 0
x8 1
x9 1
x10 0
x11 0
x12 1
x13 0
x14 0
x15 1
x3 0
x4 1
x1 1
x2 0
x5 1
